code/experiments/eil51_sub/eil51_n10.tsp
NAME : eil51_n10
COMMENT : 10-city problem (Christofides/Eilon)
TYPE : TSP
DIMENSION : 10
EDGE_WEIGHT_TYPE : CEIL_2D
NODE_COORD_SECTION
1 37 52
2 21 47
3 42 41
4 31 32
5 12 42
6 17 33
7 43 67
8 5 64
9 25 55
10 48 28
EOF
