code/experiments/eil51_sub/eil51_n10.opt.tour
10
0 6 8 1 7 4 5 3 9 2 
